####################################################################### 
# 
# This file contains crystal structure data downloaded from the 
# Cambridge Structural Database (CSD) hosted by the Cambridge 
# Crystallographic Data Centre (CCDC).
# 
# Full information about CCDC data access policies and citation 
# guidelines are available at http://www.ccdc.cam.ac.uk/access/V1 
# 
# Audit and citation data items may have been added by the CCDC. 
# Please retain this information to preserve the provenance of 
# this file and to allow appropriate attribution of the data. 
# 
#######################################################################

data_TCYQME
#This CIF has been generated from an entry in the Cambridge Structural Database
_database_code_depnum_ccdc_archive 'CCDC 1268182'
_database_code_CSD               TCYQME
loop_
_citation_id
_citation_doi
_citation_year
1 10.1107/S0365110X65002256 1965
_audit_creation_method           'Created from the CSD'
_audit_update_record             
;
2018-07-23 downloaded from the CCDC.
;
_database_code_NBS               527016
_chemical_formula_moiety         'C12 H4 N4'
_chemical_name_systematic        7,7,8,8-Tetracyanoquinodimethane
_chemical_absolute_configuration unk
_diffrn_ambient_temperature      295
_exptl_crystal_density_diffrn    1.33
#These two values have been output from a single CSD field.
_refine_ls_R_factor_gt           0.071
_refine_ls_wR_factor_gt          0.071
_diffrn_radiation_probe          x-ray
_symmetry_cell_setting           monoclinic
_symmetry_space_group_name_H-M   'C 2/c'
_symmetry_Int_Tables_number      15
_space_group_name_Hall           '-C 2yn'
loop_
_symmetry_equiv_pos_site_id
_symmetry_equiv_pos_as_xyz
1 x,y,z
2 1/2+x,1/2+y,z
3 -x,y,1/2-z
4 1/2-x,1/2+y,1/2-z
5 -x,-y,-z
6 1/2-x,1/2-y,-z
7 x,-y,1/2+z
8 1/2+x,1/2-y,1/2+z
_cell_length_a                   8.906
_cell_length_b                   7.060
_cell_length_c                   16.395
_cell_angle_alpha                90
_cell_angle_beta                 98.53
_cell_angle_gamma                90
_cell_volume                     1019.45
_cell_formula_units_Z            4
loop_
_atom_site_label
_atom_site_type_symbol
_atom_site_fract_x
_atom_site_fract_y
_atom_site_fract_z
C1 C -0.03440 0.07810 0.07430
C2 C -0.15020 0.02550 0.01640
C3 C 0.12150 0.05500 0.06120
C4 C 0.23960 0.10790 0.12050
C5 C 0.21460 0.18820 0.19820
C6 C 0.39570 0.08390 0.10900
H1 H -0.05810 0.13150 0.12180
H2 H -0.24520 0.02960 0.02550
N1 N 0.19570 0.25290 0.25960
N2 N 0.51880 0.06460 0.09940

#END
